rsa_demo_benchmark_output/128/certs/0007.assert.smt2
; benchmark generated from python API
(set-info :status unknown)
(declare-fun p () Int)
(declare-fun q () Int)
(declare-fun n () Int)
(assert
 (= p 9588514669146222379))
(assert
 (= q 15651233198310897857))
(assert
 (= n 150072079112232390676945962599276541803))
(assert
 (= (* p q) n))
(assert
 (> p 1))
(assert
 (> q 1))
(check-sat)
